NAME = AISearchfile180,
TOURSIZE = 180,
LENGTH = 39520,
135,106,12,144,153,79,30,126,77,154,65,170,14,155,75,80,150,67,62,23,158,52,108,8,86,70,162,173,167,121,104,111,161,149,105,179,127,73,56,140,114,63,116,51,137,32,102,125,59,60,82,35,26,171,42,165,117,100,39,164,68,18,47,1,175,133,57,7,109,166,101,41,54,136,178,90,38,11,151,159,122,163,5,25,169,43,145,74,176,88,22,129,10,81,44,128,71,180,89,85,124,46,78,29,142,72,3,49,15,168,13,93,147,53,16,160,19,174,103,4,92,20,33,34,110,113,172,119,91,148,84,45,76,99,146,31,24,139,132,112,48,87,83,61,152,97,115,157,98,96,143,21,138,177,107,40,27,28,37,141,118,58,2,50,64,94,156,6,120,9,66,36,131,17,55,123,69,134,95,130